c --- [ banner ] -------------------------------------------------------------
c 
c CaDiCaL Radically Simplified CDCL SAT Solver
c Copyright (c) 2016-2021 A. Biere, M. Fleury, N. Froleyks
c 
c Version 1.5.2 9c38a080b32c28d805e8e6ca21849856b0cda605
c g++ (Ubuntu 7.5.0-3ubuntu1~18.04) 7.5.0 -Wall -Wextra -O3 -DNDEBUG
c Wed Feb 16 23:15:36 EST 2022 Linux fac-vanhoeve01 5.4.0-99-generic x86_64
c 
c --- [ limit ] --------------------------------------------------------------
c 
c setting time limit to 600 seconds real time (due to '-t 600')
c setting conflict limit to 1000000000 conflicts (due to '1000000000')
c 
c --- [ parsing input ] ------------------------------------------------------
c 
c reading DIMACS file from 'ddfwcnfs/DSJR500.5.col_122.cnf'
c opening file to read 'ddfwcnfs/DSJR500.5.col_122.cnf'
c found 'p cnf 61000 3886444' header
c parsed 3886444 clauses in 2.13 seconds process time
c closing file 'ddfwcnfs/DSJR500.5.col_122.cnf'
c after reading 60891054 bytes 58.1 MB
c 
c --- [ options ] ------------------------------------------------------------
c 
c all options are set to their default value
c 
c --- [ solving ] ------------------------------------------------------------
c 
c time measured in process time since initialization
c 
c  seconds   reductions  redundant   irredundant
c          MB    restarts       trail        variables
c           level   conflicts       glue          remaining
c 
c *  2.13 324  0 0   0    0    0  0% 0 3849352 45915 75%
c {  2.14 325  0 0   0    0    0  0% 0 3849352 45915 75%
c -  2.86 325 54 1  44  301  214 42% 31 3848260 45915 75%
c }  3.36 325 84 1 179 1000  754 49% 46 3848260 45915 75%
c [  3.36 325  0 1 179 1000  754  0% 0 3848260 45915 75%
c O  3.36 325 170 1 179 1002  756 54% 19 3848260 45915 75%
c -  5.22 414 36 2 179 1852 1191 34% 26 3848260 45915 75%
c ]  5.33 414 43 2 180 3001 2093 34% 32 3848260 45915 75%
c {  5.33 414 84 2 180 3001 2093 49% 46 3848260 45915 75%
c F  7.01 407 84 2 180 3003 2095  6% 46 3848260 45915 75%
c -  8.67 436 82 3 199 4179 2333 29% 42 3848260 45915 75%
c p 11.00 436 74 3 200 5002 2882 28% 42 3848260 45915 75%
c # 11.76 436 71 3 250 6005 3504 28% 42 3848260 45915 75%
c } 11.92 436 73 3 250 7001 4312 27% 40 3848260 45915 75%
c [ 11.92 436 43 3 250 7001 4312 46% 32 3848260 45915 75%
c - 13.29 436 43 4 251 7282 2765 41% 31 3848260 45915 75%
c I 13.55 436 45 4 252 10008 4767 25% 31 3848260 45915 75%
c - 15.09 436 1161 5 253 11159 3877 33% 35 3848260 45915 75%
c s 16.42 436 1009 5 254 12783 5148 34% 40 3848260 45915 75%
c e 21.37 480 1009 5 254 12783 1364 34% 40 1587248 25788 42%
c 
c  seconds     reductions   redundant    irredundant
c          MB      restarts        trail         variables
c            level     conflicts       glue           remaining
c 
c s 21.68 480 1009 5 254 12783 1353 34% 40 1587248 25788 42%
c ^ 21.99 480 1009 5 254 12783 1353 34% 40 1587248 25788 42%
c ] 23.24 400 814 5 255 15002 2920 44% 49 1587248 25788 42%
c { 23.24 400 73 5 255 15002 2920 48% 40 1587248 25788 42%
c p 24.12 400 73 5 255 15002 2989 48% 40 1587248 25788 42%
c B 24.36 400 78 5 255 15010 2997 48% 40 1587248 25788 42%
c - 25.13 401 82 6 456 15812 2786 45% 42 1587248 25788 42%
c - 26.52 401 88 7 949 20434 4552 40% 44 1587248 25788 42%
c W 27.15 401 89 7 980 21013 5048 39% 44 1587248 25788 42%
c - 28.45 401 202 8 1486 25716 5413 36% 44 1587248 25788 42%
c F 28.83 401 183 8 2014 28017 7114 34% 46 1587248 25788 42%
c p 29.95 401 166 8 2016 30002 9251 32% 43 1587248 25788 42%
c } 30.26 401 159 8 2016 31006 10034 31% 42 1587248 25788 42%
c [ 30.26 401 814 8 2016 31006 10034 44% 49 1587248 25788 42%
c - 30.84 401 764 9 2016 31657 6001 37% 48 1587248 25788 42%
c B 31.27 401 541 9 2019 36018 9392 25% 42 1587248 25788 42%
c s 31.47 401 547 9 2019 36559 9502 25% 43 1587248 25788 42%
c s 33.14 401 547 9 2019 36559 9364 25% 43 1587248 25788 42%
c ^ 33.38 401 547 9 2019 36559 9364 25% 43 1587248 25788 42%
c - 34.25 402 507 10 2020 38259 7795 26% 46 1587248 25788 42%
c 
c  seconds    reductions      redundant    irredundant
c          MB      restarts          trail         variables
c            level      conflicts        glue           remaining
c 
c W 35.81 402 394 10 2023 45020 12857 25% 55 1587248 25788 42%
c - 36.41 402 387 11 2023 45523 7825 25% 55 1587248 25788 42%
c 2 37.81 402 336 11 2024 50003 10789 25% 57 1587248 25788 42%
c p 38.04 402 336 11 2024 50003 12896 25% 57 1587248 25788 42%
c - 39.37 402 324 12 2024 53450 8123 25% 59 1587248 25788 42%
c O 39.60 402 314 12 2025 55021 9302 26% 59 1587248 25788 42%
c - 41.01 401 263 13 2030 62032 7154 27% 58 1587248 25788 42%
c ] 41.13 401 258 13 2031 63006 7902 27% 57 1587248 25788 42%
c { 41.13 401 159 13 2031 63006 7902 31% 42 1587248 25788 42%
c B 41.65 401 148 13 2413 66024 10190 31% 43 1587248 25788 42%
c - 42.96 401 129 14 3002 71274 8479 31% 43 1587248 25788 42%
c s 43.17 401 127 14 3229 72227 9177 31% 44 1587248 25788 42%
c e 44.79 401 127 14 3229 72227 9177 31% 44 1587250 25787 42%
c s 44.83 401 127 14 3229 72227 9175 31% 44 1587250 25787 42%
c p 46.65 401 120 14 3918 75003 14737 31% 45 1587250 25787 42%
c W 48.03 401 114 14 4649 78025 15790 30% 46 1587250 25787 42%
c - 49.13 402 152 15 4652 81176 8137 30% 45 1587250 25787 42%
c # 50.66 402 149 15 5152 91027 14003 31% 45 1587250 25787 42%
c - 51.31 402 148 16 5152 91739 9070 31% 45 1587250 25787 42%
c - 53.31 402 130 17 5299 102962 11372 30% 44 1587250 25787 42%
c 
c  seconds    reductions       redundant    irredundant
c          MB      restarts           trail         variables
c            level      conflicts         glue           remaining
c 
c p 54.57 402 126 17 5368 105003 14055 30% 44 1587250 25787 42%
c B 54.83 402 126 17 5374 105028 14074 30% 44 1587250 25787 42%
c - 57.03 402 117 18 6389 114845 11995 31% 46 1587250 25787 42%
c W 58.98 402 113 18 6901 120030 15923 31% 46 1587250 25787 42%
c } 60.01 402 110 18 6964 127007 21038 32% 46 1587250 25787 42%
c [ 60.01 402 258 18 6964 127007 21038 27% 57 1587250 25787 42%
c - 60.66 403 257 19 6964 127388 12756 27% 58 1587250 25787 42%
c B 62.00 403 232 19 6969 136034 19457 28% 62 1587250 25787 42%
c p 63.77 403 234 19 6971 140005 28015 28% 61 1587250 25787 42%
c - 64.70 404 233 20 6971 140591 14254 28% 61 1587250 25787 42%
c W 68.13 404 199 20 6973 153041 23951 30% 65 1587250 25787 42%
c - 68.99 404 196 21 6973 154455 15152 30% 65 1587250 25787 42%
c - 71.74 404 187 22 6975 168983 14468 32% 70 1587250 25787 42%
c I 72.07 404 185 22 6976 171044 15795 32% 71 1587250 25787 42%
c p 74.75 404 310 22 6980 180006 24738 32% 73 1587250 25787 42%
c - 76.29 406 296 23 6983 184167 16089 33% 71 1587250 25787 42%
c B 77.37 406 286 23 6987 190047 20575 34% 71 1587250 25787 42%
c - 79.90 407 269 24 6988 200012 16341 35% 73 1587250 25787 42%
c W 83.57 407 250 24 6995 210048 23990 36% 74 1587250 25787 42%
c - 85.16 408 249 25 6998 216516 18250 36% 73 1587250 25787 42%
c 
c  seconds    reductions       redundant    irredundant
c          MB      restarts           trail         variables
c            level      conflicts         glue           remaining
c 
c p 87.35 408 236 25 7002 225006 25967 35% 73 1587250 25787 42%
c O 88.49 408 228 25 7003 231049 30899 34% 74 1587250 25787 42%
c - 89.27 407 222 26 7003 233681 19525 34% 72 1587250 25787 42%
c - 91.60 402 186 27 7005 251507 18613 30% 64 1587250 25787 42%
c B 91.79 402 183 27 7005 253051 19778 29% 63 1587250 25787 42%
c ] 92.19 402 421 27 7005 255009 21425 31% 66 1587250 25787 42%
c { 92.19 402 110 27 7005 255009 21425 32% 46 1587250 25787 42%
c - 94.86 404 103 28 8202 269992 19010 33% 46 1587250 25787 42%
c p 96.46 404 99 28 8212 275006 30037 32% 46 1587250 25787 42%
c F 96.79 404 98 28 8212 276052 30738 32% 45 1587250 25787 42%
c - 98.31 402 92 29 8212 289138 20537 29% 42 1587250 25787 42%
c B 99.22 402 89 29 8212 300054 28919 27% 41 1587250 25787 42%
c - 101.23 403 88 30 9300 308944 20903 27% 42 1587250 25787 42%
c W 105.31 403 85 30 10265 325055 32282 27% 40 1587250 25787 42%
c - 106.41 403 89 31 10598 329412 20118 28% 40 1587250 25787 42%
c s 106.52 403 89 31 10598 329412 19902 28% 40 1587250 25787 42%
c w 107.45 403 89 31 10598 329412 19853 28% 40 1587250 25787 42%
c 2 108.63 403 89 31 10648 330008 20320 28% 40 1587250 25787 42%
c p 108.81 403 89 31 10648 330008 23995 28% 40 1587250 25787 42%
c - 113.19 406 84 32 12539 350540 22472 29% 42 1587250 25787 42%
c 
c  seconds    reductions        redundant    irredundant
c           MB      restarts           trail         variables
c            level       conflicts         glue           remaining
c 
c # 113.28 406 83 32 12539 351056 22900 29% 42 1587250 25787 42%
c - 115.88 404 79 33 12543 372326 23700 27% 40 1587250 25787 42%
c B 116.46 404 77 33 12547 378057 28198 27% 40 1587250 25787 42%
c p 119.50 404 77 33 14119 390017 37539 28% 40 1587250 25787 42%
c - 121.01 404 77 34 14243 394773 23752 28% 40 1587250 25787 42%
c W 125.20 404 79 34 14545 406059 31438 28% 40 1587250 25787 42%
c - 127.10 403 75 35 14772 417880 20727 29% 40 1587250 25787 42%
c F 129.04 403 70 35 15055 435060 29937 30% 40 1587250 25787 42%
c - 130.29 403 72 36 15055 441650 21184 29% 39 1587250 25787 42%
c p 133.09 403 70 36 16559 455020 38107 29% 39 1587250 25787 42%
c B 134.51 403 70 36 16829 465062 45095 30% 39 1587250 25787 42%
c - 135.34 404 70 37 17035 466078 22467 30% 39 1587250 25787 42%
c - 138.74 403 76 38 17389 491166 23503 28% 36 1587250 25787 42%
c W 142.40 403 79 38 17400 496063 27239 28% 36 1587250 25787 42%
c } 144.89 403 78 38 20697 511013 35562 29% 38 1587250 25787 42%
c [ 144.89 403 421 38 20697 511013 35562 31% 66 1587250 25787 42%
c - 146.15 405 396 39 20697 516914 23541 30% 65 1587250 25787 42%
c p 148.35 405 366 39 20697 525025 33948 29% 63 1587250 25787 42%
c W 152.52 405 397 39 20697 528064 36398 29% 63 1587250 25787 42%
c - 155.39 409 357 40 20700 543324 27921 28% 67 1587250 25787 42%
c 
c  seconds     reductions        redundant    irredundant
c           MB       restarts           trail         variables
c             level       conflicts         glue           remaining
c 
c I 158.10 409 307 40 20710 561066 40407 30% 67 1587250 25787 42%
c - 160.46 410 302 41 20712 570393 27632 30% 65 1587250 25787 42%
c B 164.60 410 268 41 20726 595072 46347 31% 64 1587250 25787 42%
c - 165.52 410 305 42 20726 598122 28967 31% 65 1587250 25787 42%
c p 166.89 410 305 42 20727 600027 31886 31% 65 1587250 25787 42%
c - 173.05 415 254 43 20731 626511 30254 30% 66 1587250 25787 42%
c W 177.46 415 249 43 20734 630073 32908 30% 67 1587250 25787 42%
c - 183.12 415 215 44 20743 655561 31869 29% 69 1587250 25787 42%
c s 183.23 415 215 44 20743 655561 31644 29% 69 1587250 25787 42%
c w 184.18 415 215 44 20743 655561 31621 29% 69 1587250 25787 42%
c O 186.12 415 202 44 20750 666076 38736 29% 69 1587250 25787 42%
c 2 189.30 415 183 44 20757 680027 49368 30% 67 1587250 25787 42%
c p 189.56 415 183 44 20757 680027 57806 30% 67 1587250 25787 42%
c - 191.19 408 177 45 20758 685269 31716 30% 66 1587250 25787 42%
c B 194.32 408 160 45 20759 703082 45594 32% 65 1587250 25787 42%
c - 196.77 410 158 46 20760 715639 31760 32% 69 1587250 25787 42%
c W 205.76 410 149 46 20761 741084 50097 33% 74 1587250 25787 42%
c - 207.52 411 146 47 20761 746668 31398 34% 75 1587250 25787 42%
c p 212.25 411 140 47 20761 765028 48102 34% 78 1587250 25787 42%
c - 216.53 361 134 48 20761 778358 32227 35% 77 1587250 25787 42%
c 
c  seconds     reductions        redundant    irredundant
c           MB       restarts           trail         variables
c             level       conflicts         glue           remaining
c 
c I 216.86 361 133 48 20761 780088 33599 35% 77 1587250 25787 42%
c - 223.06 415 605 49 20766 810709 35895 35% 82 1587250 25787 42%
c B 224.93 415 570 49 20771 820090 42968 35% 82 1587250 25787 42%
c - 228.86 361 497 50 20780 843718 35816 34% 79 1587250 25787 42%
c p 231.65 361 457 50 20786 855029 46022 33% 77 1587250 25787 42%
c W 237.50 361 438 50 20790 861093 50720 33% 76 1587250 25787 42%
c - 239.72 412 404 51 20792 877389 37209 31% 72 1587250 25787 42%
c O 243.08 412 375 51 20802 903095 56113 31% 68 1587250 25787 42%
c - 244.70 361 349 52 20806 911720 36142 30% 65 1587250 25787 42%
c B 249.70 361 271 52 20821 946097 61589 29% 63 1587250 25787 42%
c - 250.34 411 274 53 20822 946712 36038 29% 63 1587250 25787 42%
c p 251.72 411 274 53 20822 950031 47153 29% 62 1587250 25787 42%
c - 257.06 361 219 54 20824 982363 37317 28% 61 1587250 25787 42%
c W 263.69 361 208 54 20824 990100 43115 28% 61 1587250 25787 42%
c - 269.34 410 178 55 20833 1018673 40510 29% 62 1587250 25787 42%
c s 269.47 410 178 55 20833 1018673 40402 29% 62 1587250 25787 42%
c ] 271.59 410 211 55 20836 1023020 43749 30% 62 1587250 25787 42%
c { 271.59 410 78 55 20836 1023020 43749 29% 38 1587250 25787 42%
c # 273.74 410 78 55 23444 1035101 51463 29% 40 1587250 25787 42%
c p 276.05 410 78 55 23496 1050031 64902 27% 38 1587250 25787 42%
c 
c  seconds    reductions         redundant    irredundant
c           MB      restarts            trail         variables
c            level        conflicts         glue           remaining
c 
c - 277.32 361 78 56 23496 1055644 36199 27% 38 1587250 25787 42%
c B 281.08 361 77 56 25539 1081104 53663 27% 37 1587250 25787 42%
c - 283.61 407 75 57 28466 1093275 36844 28% 39 1587250 25787 42%
c W 294.31 407 69 57 36944 1128108 49679 31% 42 1587250 25787 42%
c - 295.28 361 68 58 37663 1131567 24516 31% 43 1587250 25787 42%
c p 299.10 361 64 58 41372 1155034 34553 32% 44 1587250 25787 42%
c - 301.73 403 62 59 43105 1170520 21837 33% 44 1587250 25787 42%
c F 302.37 403 62 59 43793 1176110 23950 33% 45 1587250 25787 42%
c - 305.90 361 70 60 43793 1210131 36366 30% 38 1587250 25787 42%
c B 307.46 361 73 60 43793 1225113 48171 28% 37 1587250 25787 42%
c - 312.06 406 72 61 46758 1250403 38203 29% 37 1587250 25787 42%
c p 314.97 406 68 61 46792 1265034 56551 29% 37 1587250 25787 42%
c W 323.78 406 66 61 46804 1275115 63429 29% 37 1587250 25787 42%
c - 326.34 361 62 62 46837 1291336 38723 29% 36 1587250 25787 42%
c # 331.47 361 54 62 46845 1326117 59419 29% 35 1587250 25787 42%
c - 333.02 406 55 63 47212 1332931 38994 29% 34 1587250 25787 42%
c - 340.39 361 55 64 56379 1375184 31492 28% 39 1587250 25787 42%
c B 340.87 361 55 64 57050 1378118 32961 28% 40 1587250 25787 42%
c p 342.18 361 55 64 57487 1380034 38831 28% 40 1587250 25787 42%
c - 349.33 408 59 65 62130 1418097 36497 30% 41 1587250 25787 42%
c 
c  seconds    reductions         redundant    irredundant
c           MB      restarts            trail         variables
c            level        conflicts         glue           remaining
c 
c W 359.65 408 61 65 62176 1431119 46889 31% 41 1587250 25787 42%
c - 365.11 361 61 66 65627 1461670 42478 31% 41 1587250 25787 42%
c s 365.31 361 61 66 65627 1461670 42218 31% 41 1587250 25787 42%
c F 369.98 361 59 66 69224 1485121 54280 30% 42 1587250 25787 42%
c p 372.93 361 64 66 69225 1500035 66865 28% 39 1587250 25787 42%
c - 374.71 406 63 67 69225 1505902 41715 27% 39 1587250 25787 42%
c B 379.76 406 59 67 69225 1540125 68852 24% 35 1587250 25787 42%
c - 382.39 361 60 68 71301 1550797 46062 25% 36 1587250 25787 42%
c W 398.69 361 72 68 77249 1596129 77439 28% 38 1587250 25787 42%
c - 399.33 409 72 69 77297 1596350 44351 28% 38 1587250 25787 42%
c p 405.35 409 70 69 83187 1625039 73619 27% 41 1587250 25787 42%
c - 409.86 361 69 70 87080 1642566 46346 27% 43 1587250 25787 42%
c # 412.09 361 69 70 89499 1653130 54322 26% 44 1587250 25787 42%
c - 416.42 410 64 71 90562 1689439 41743 25% 45 1587250 25787 42%
c B 418.86 410 61 71 91165 1711131 55427 25% 45 1587250 25787 42%
c - 423.35 361 63 72 91539 1736973 45648 27% 44 1587250 25787 42%
c p 427.21 361 63 72 91648 1755041 62164 28% 44 1587250 25787 42%
c W 439.33 361 62 72 91758 1770133 71318 28% 44 1587250 25787 42%
c - 442.01 408 60 73 91855 1785169 42744 28% 44 1587250 25787 42%
c F 449.23 408 58 73 97855 1830136 74513 31% 45 1587250 25787 42%
c 
c  seconds    reductions         redundant    irredundant
c           MB      restarts            trail         variables
c            level        conflicts         glue           remaining
c 
c - 450.14 361 59 74 97855 1834025 47212 31% 45 1587250 25787 42%
c - 455.42 407 50 75 97861 1883541 50015 25% 38 1587250 25787 42%
c p 457.14 407 50 75 97923 1890045 55740 24% 38 1587250 25787 42%
c B 457.50 407 50 75 97923 1891138 56459 24% 38 1587250 25787 42%
c - 464.64 361 50 76 101713 1933715 45913 27% 40 1587250 25787 42%
c W 477.92 361 49 76 102120 1953139 55755 29% 40 1587250 25787 42%
c - 483.76 406 47 77 102261 1984549 40540 31% 40 1587250 25787 42%
c s 483.90 406 47 77 102261 1984549 40429 31% 40 1587250 25787 42%
c w 484.91 406 47 77 102261 1984549 40392 31% 40 1587250 25787 42%
c # 490.23 406 46 77 102415 2016140 57563 32% 40 1587250 25787 42%
c p 493.18 406 50 77 103927 2030046 75692 32% 40 1587250 25787 42%
c - 494.61 361 55 78 104137 2036045 43070 32% 39 1587250 25787 42%
c } 495.97 361 57 78 104431 2047020 50132 32% 39 1587250 25787 42%
c [ 495.97 361 211 78 104431 2047020 50132 30% 62 1587250 25787 42%
c I 500.55 361 206 78 104446 2080143 74431 33% 58 1587250 25787 42%
c - 502.60 414 212 79 104449 2088200 49408 34% 59 1587250 25787 42%
c - 514.54 429 209 80 104465 2141016 51801 35% 78 1587250 25787 42%
c B 515.70 429 208 80 104466 2145146 54814 35% 79 1587250 25787 42%
c p 521.13 429 194 80 104480 2175051 80643 33% 79 1587250 25787 42%
c - 525.18 361 177 81 104481 2194491 53446 32% 79 1587250 25787 42%
c 
c  seconds     reductions          redundant    irredundant
c           MB       restarts             trail         variables
c             level         conflicts         glue           remaining
c 
c W 537.75 361 165 81 104482 2211149 65697 31% 79 1587250 25787 42%
c - 544.55 417 147 82 104483 2248627 58502 31% 75 1587250 25787 42%
c O 551.24 417 138 82 104483 2278150 81722 31% 75 1587250 25787 42%
c - 554.74 361 124 83 104484 2303424 59690 31% 71 1587250 25787 42%
c p 558.42 361 114 83 104484 2325052 76253 30% 68 1587250 25787 42%
c B 561.11 361 120 83 104484 2346153 91524 29% 71 1587250 25787 42%
c - 564.59 419 143 84 104484 2358880 58199 29% 70 1587250 25787 42%
c - 579.99 427 204 85 104484 2414997 60820 30% 74 1587250 25787 42%
c W 590.32 427 204 85 104484 2415154 60950 30% 74 1587250 25787 42%
c - 600.40 361 164 86 104506 2471773 58777 29% 75 1587250 25787 42%
c ] 600.40 361 164 86 104506 2471773 58777 29% 75 1587250 25787 42%
c ? 600.40 361 164 86 104506 2471773 58777 29% 75 1587250 25787 42%
c 
c --- [ result ] -------------------------------------------------------------
c 
c UNKNOWN
c 
c --- [ run-time profiling ] -------------------------------------------------
c 
c process time taken by individual solving procedures
c (percentage relative to process time for solving)
c 
c       543.84   90.90% search
c       220.09   36.79% unstable
c       217.70   36.39% stable
c       106.05   17.73% walk
c        54.43    9.10% simplify
c        14.35    2.40% ternary
c         6.80    1.14% probe
c         6.73    1.12% vivify
c         3.96    0.66% elim
c         2.30    0.38% subsume
c         2.13    0.36% parse
c         0.00    0.00% lucky
c   =================================
c       598.27   99.64% solve
c 
c last line shows process time for solving
c (percentage relative to total process time)
c 
c --- [ statistics ] ---------------------------------------------------------
c 
c chronological:            544607        22.03 %  of conflicts
c conflicts:               2471773      4131.53    per second
c decisions:               4191493      7006.02    per second
c eliminated:                20128        33.00 %  of all variables
c fixed:                     15085        24.73 %  of all variables
c learned:                 2429658        98.30 %  per conflict
c learned_lits:          431095863       100.00 %  learned literals
c minimized:                     0         0.00 %  learned literals
c shrunken:              199104170        46.19 %  learned literals
c minishrunken:           20433811         4.74 %  learned literals
c propagations:          850171346         1.42 M  per second
c reduced:                 1652180        66.84 %  per conflict
c rephased:                     69     35822.80    interval
c restarts:                 104506        23.65    interval
c stabilizing:                   6        44.78 %  of conflicts
c subsumed:                 714697         5.58 %  of all clauses
c strengthened:              10399         0.08 %  of all clauses
c vivified:                    275         0.00 %  of all clauses
c walked:                       22    112353.32    interval
c weakened:                2269825         2.01    average size
c 
c seconds are measured in process time for solving
c 
c --- [ resources ] ----------------------------------------------------------
c 
c total process time since initialization:       600.40    seconds
c total real time since initialization:          600.45    seconds
c maximum resident set size of process:          553.72    MB
c 
c --- [ shutting down ] ------------------------------------------------------
c 
c exit 0
